<?xml version = "1.0" standalone="yes"?>
<!-- This file has been generated by DOcplex version 2.23.222  -->
<CPLEXSolution version="1.0">
 <header
   problemName="CVRP"
   objectiveValue="11533.4"
  />
 <variables>
  <variable name="x_0_1" index="0" value="1.00000"/>
  <variable name="x_0_3" index="2" value="1.00000"/>
  <variable name="x_0_5" index="4" value="1.00000"/>
  <variable name="x_0_7" index="6" value="1.00000"/>
  <variable name="x_0_8" index="7" value="1.00000"/>
  <variable name="x_0_9" index="8" value="1.00000"/>
  <variable name="x_0_10" index="9" value="1.00000"/>
  <variable name="x_0_12" index="11" value="1.00000"/>
  <variable name="x_0_14" index="13" value="1.00000"/>
  <variable name="x_1_11" index="24" value="1.00000"/>
  <variable name="x_2_0" index="28" value="1.00000"/>
  <variable name="x_3_2" index="44" value="1.00000"/>
  <variable name="x_4_0" index="56" value="1.00000"/>
  <variable name="x_5_0" index="70" value="1.00000"/>
  <variable name="x_6_4" index="88" value="1.00000"/>
  <variable name="x_7_6" index="104" value="1.00000"/>
  <variable name="x_8_0" index="112" value="1.00000"/>
  <variable name="x_9_0" index="126" value="1.00000"/>
  <variable name="x_10_0" index="140" value="1.00000"/>
  <variable name="x_11_0" index="154" value="1.00000"/>
  <variable name="x_12_13" index="180" value="1.00000"/>
  <variable name="x_13_0" index="182" value="1.00000"/>
  <variable name="x_14_0" index="196" value="1.00000"/>
  <variable name="u_1" index="210" value="7.00000"/>
  <variable name="u_2" index="211" value="44.00000"/>
  <variable name="u_3" index="212" value="9.00000"/>
  <variable name="u_4" index="213" value="47.00000"/>
  <variable name="u_5" index="214" value="46.00000"/>
  <variable name="u_6" index="215" value="40.00000"/>
  <variable name="u_7" index="216" value="32.00000"/>
  <variable name="u_8" index="217" value="47.00000"/>
  <variable name="u_9" index="218" value="22.00000"/>
  <variable name="u_10" index="219" value="44.00000"/>
  <variable name="u_11" index="220" value="44.00000"/>
  <variable name="u_12" index="221" value="14.00000"/>
  <variable name="u_13" index="222" value="44.00000"/>
  <variable name="u_14" index="223" value="34.00000"/>
 </variables>
</CPLEXSolution>
